Test: fpga12_11_sat.cnf
Options: 
WARNING: for repeatability, setting FPU to use double precision
============================[ Problem Statistics ]=============================
|                                                                             |
|  Number of symmetries:           29                                         |
|  Number of invertingSyms:         0                                         |
|  Number of variables:           198                                         |
|  Number of clauses:             968                                         |
|  Parse time:                   0.00 s                                       |
|                                                                             |
============================[ Search Statistics ]==============================
| Conflicts |          ORIGINAL         |          LEARNT          | Progress |
|           |    Vars  Clauses Literals |    Limit  Clauses Lit/Cl |          |
===============================================================================
|       100 |     198      968     2640 |      354      281     40 |  0.003 % |
===============================================================================
restarts              : 3
conflicts             : 200            (50000 /sec)
symconflicts          : 63             (15750 /sec)
decisions             : 524            (0.00 % random) (131000 /sec)
propagations          : 4441           (1110250 /sec)
sympropagations       : 333            (83250 /sec)
conflict literals     : 6974           (0.68 % deleted)
literals     : 6974           (0.68 % deleted)

HEURISTIC USAGES
random                : 0           
activity w/ lookahead : 0           
activity no lookahead : 0           
original sp           : 523         
sym count             : 0           

Memory used           : 6.00 MB
CPU time              : 0.004 s

SATISFIABLE
